
Gurobi 10.0.1 (linux64) logging started Sun Nov 26 15:51:06 2023

Set parameter LogFile to value "ArtificialInstance/ExperimentV2/S3T5K3/AdRo/gurobiDoRo16.txt"
Gurobi Optimizer version 10.0.1 build v10.0.1rc0 (linux64)

CPU model: AMD EPYC 7H12 64-Core Processor, instruction set [SSE2|AVX|AVX2]
Thread count: 128 physical cores, 128 logical processors, using up to 32 threads

Academic license 656792 - for non-commercial use only - registered to b.___@student.vu.nl
Optimize a model with 21803 rows, 20185 columns and 78717 nonzeros
Model fingerprint: 0x22c69072
Variable types: 1 continuous, 20184 integer (20184 binary)
Coefficient statistics:
  Matrix range     [1e+00, 4e+01]
  Objective range  [1e+00, 2e+01]
  Bounds range     [1e+00, 1e+00]
  RHS range        [1e+00, 1e+00]
Presolve removed 10679 rows and 10020 columns
Presolve time: 0.29s
Presolved: 11124 rows, 10165 columns, 39710 nonzeros
Variable types: 1 continuous, 10164 integer (10164 binary)
Found heuristic solution: objective 116.1011369

Root relaxation: objective 1.064426e+02, 3541 iterations, 0.17 seconds (0.11 work units)

    Nodes    |    Current Node    |     Objective Bounds      |     Work
 Expl Unexpl |  Obj  Depth IntInf | Incumbent    BestBd   Gap | It/Node Time

     0     0  106.44261    0  188  116.10114  106.44261  8.32%     -    0s
H    0     0                     106.4426132  106.44261  0.00%     -    0s
     0     0  106.44261    0  188  106.44261  106.44261  0.00%     -    0s

Explored 1 nodes (9425 simplex iterations) in 0.84 seconds (0.60 work units)
Thread count was 32 (of 128 available processors)

Solution count 2: 106.443 116.101 

Optimal solution found (tolerance 1.00e-04)
Best objective 1.064426132410e+02, best bound 1.064426132410e+02, gap 0.0000%
